Clp0006I 0  Obj 0 Primal inf 399.99996 (400) Dual inf 1098212 (40000)
Clp0006I 200  Obj -24515 Primal inf 3566 (370)
Clp0006I 327  Obj -9998 Primal inf 1717 (359)
Clp0006I 419  Obj -9998 Primal inf 2200 (348)
Clp0006I 474  Obj -9998 Primal inf 1484 (338)
Clp0006I 545  Obj -9998 Primal inf 1510 (325)
Clp0006I 632  Obj -9998 Primal inf 961.99997 (306)
Clp0006I 745  Obj -9998 Primal inf 592.99997 (273)
Clp0006I 842  Obj -9998 Primal inf 433.99998 (236)
Clp0006I 910  Obj -9998 Primal inf 294.99998 (194)
Clp0006I 1010  Obj -9997 Primal inf 76.999993 (67)
Clp0006I 1095  Obj -9997 Primal inf 51.999996 (42)
Clp0006I 1139  Obj -9997
Clp0000I Optimal - objective value -9997
Clp0000I Optimal - objective value -9997
Node 0 depth 0 unsatisfied 0 sum 0 obj -9997 guess -9997 branching on -1
Clp0000I Optimal - objective value -9997
Cbc0004I Integer solution of -9997 found after 0 iterations and 0 nodes (0.17 seconds)
Cbc0001I Search completed - best objective -9997, took 0 iterations and 0 nodes (0.19 seconds)
Cbc0035I Maximum depth 0, 0 variables fixed on reduced cost
Clp0000I Optimal - objective value -9997
Clp0000I Optimal - objective value -9997
x_159 = 1
x_347 = 1
x_599 = 1
x_729 = 1
x_946 = 1
x_1017 = 1
x_1306 = 1
x_1474 = 1
x_1692 = 1
x_1964 = 1
x_2104 = 1
x_2241 = 1
x_2403 = 1
x_2653 = 1
x_2844 = 1
x_3127 = 1
x_3319 = 1
x_3573 = 1
x_3684 = 1
x_3888 = 1
x_4171 = 1
x_4357 = 1
x_4522 = 1
x_4668 = 1
x_4986 = 1
x_5069 = 1
x_5376 = 1
x_5475 = 1
x_5797 = 1
x_5925 = 1
x_6037 = 1
x_6385 = 1
x_6588 = 1
x_6685 = 1
x_6931 = 1
x_7066 = 1
x_7333 = 1
x_7482 = 1
x_7640 = 1
x_7974 = 1
x_8181 = 1
x_8221 = 1
x_8554 = 1
x_8605 = 1
x_8969 = 1
x_9022 = 1
x_9242 = 1
x_9401 = 1
x_9768 = 1
x_9891 = 1
x_10056 = 1
x_10265 = 1
x_10589 = 1
x_10690 = 1
x_10849 = 1
x_11170 = 1
x_11243 = 1
x_11425 = 1
x_11645 = 1
x_11812 = 1
x_12117 = 1
x_12208 = 1
x_12407 = 1
x_12745 = 1
x_12966 = 1
x_13115 = 1
x_13382 = 1
x_13402 = 1
x_13671 = 1
x_13887 = 1
x_14136 = 1
x_14262 = 1
x_14428 = 1
x_14713 = 1
x_14811 = 1
x_15067 = 1
x_15283 = 1
x_15416 = 1
x_15604 = 1
x_15955 = 1
x_16184 = 1
x_16299 = 1
x_16556 = 1
x_16703 = 1
x_16953 = 1
x_17055 = 1
x_17305 = 1
x_17430 = 1
x_17761 = 1
x_17900 = 1
x_18020 = 1
x_18342 = 1
x_18572 = 1
x_18762 = 1
x_18860 = 1
x_19029 = 1
x_19227 = 1
x_19463 = 1
x_19693 = 1
x_19861 = 1
x_20050 = 1
x_20308 = 1
x_20530 = 1
x_20610 = 1
x_20896 = 1
x_21124 = 1
x_21360 = 1
x_21413 = 1
x_21676 = 1
x_21819 = 1
x_22163 = 1
x_22367 = 1
x_22583 = 1
x_22636 = 1
x_22872 = 1
x_23073 = 1
x_23215 = 1
x_23516 = 1
x_23752 = 1
x_23948 = 1
x_24138 = 1
x_24270 = 1
x_24439 = 1
x_24790 = 1
x_24823 = 1
x_25024 = 1
x_25234 = 1
x_25478 = 1
x_25609 = 1
x_25987 = 1
x_26047 = 1
x_26392 = 1
x_26486 = 1
x_26697 = 1
x_26851 = 1
x_27057 = 1
x_27264 = 1
x_27426 = 1
x_27739 = 1
x_27941 = 1
x_28058 = 1
x_28298 = 1
x_28535 = 1
x_28707 = 1
x_28835 = 1
x_29095 = 1
x_29334 = 1
x_29502 = 1
x_29714 = 1
x_29996 = 1
x_30014 = 1
x_30310 = 1
x_30578 = 1
x_30659 = 1
x_30975 = 1
x_31031 = 1
x_31332 = 1
x_31577 = 1
x_31720 = 1
x_31998 = 1
x_32000 = 1
x_32321 = 1
x_32580 = 1
x_32633 = 1
x_32806 = 1
x_33109 = 1
x_33326 = 1
x_33446 = 1
x_33779 = 1
x_33901 = 1
x_34094 = 1
x_34344 = 1
x_34452 = 1
x_34689 = 1
x_34928 = 1
x_35111 = 1
x_35312 = 1
x_35593 = 1
x_35740 = 1
x_35923 = 1
x_36137 = 1
x_36281 = 1
x_36565 = 1
x_36718 = 1
x_36994 = 1
x_37158 = 1
x_37277 = 1
x_37432 = 1
x_37618 = 1
x_37854 = 1
x_38079 = 1
x_38349 = 1
x_38591 = 1
x_38638 = 1
x_38950 = 1
x_39195 = 1
x_39343 = 1
x_39448 = 1
x_39680 = 1
x_39951 = 1
real 0m0,368s user 0m0,323s sys 0m0,045s
